Optimal - objective value 3952.00000000
     18 x_0_19                  1                     -79
     35 x_1_15                  1                       0
     43 x_2_1                   1                       0
     75 x_3_13                  1                       0
    103 x_4_20                  1                       0
    115 x_5_11                  1                       0
    146 x_6_21                  1                       0
    163 x_7_17                  1                       0
    171 x_8_3                   1                       0
    196 x_9_7                   1                     190
    221 x_10_12                 1                       0
    241 x_11_10                 1                       0
    258 x_12_6                  1                       0
    290 x_13_18                 1                       0
    302 x_14_8                  1                       0
    319 x_15_4                  1                       0
    345 x_16_9                  1                      38
    357 x_17_0                  1                    -139
    394 x_18_16                 1                       0
    401 x_19_2                  1                       0
    425 x_20_5                  1                       0
    455 x_21_14                 1                       0
    462 u_1                     3                       0
    463 u_2                     2                       0
    464 u_3                    15                       0
    465 u_4       5.00000000000001                       0
    466 u_5       6.99999999999998                       0
    467 u_6                    11                       0
    468 u_7                    20                       0
    469 u_8                    14                       0
    470 u_9                    19                       0
    471 u_10      8.99999999999999                       0
    472 u_11      7.99999999999999                       0
    473 u_12      9.99999999999999                       0
    474 u_13                   16                       0
    475 u_14                   13                       0
    476 u_15                    4                       0
    477 u_16                   18                       0
    478 u_17                   21                       0
    479 u_18                   17                       0
    480 u_19                    1                       0
    481 u_20      6.00000000000001                       0
    482 u_21                   12                       0
